Problem:    05
Rows:       32
Columns:    19
Non-zeros:  71
Status:     OPTIMAL
Objective:  w = 0 (MAXimum)

   No.   Row name   St   Activity     Lower bound   Upper bound    Marginal
------ ------------ -- ------------- ------------- ------------- -------------
     1 tot[SUPER]   NS             0            -0             =         < eps
     2 tot[NORMALE] NS             0            -0             =         < eps
     3 tot[VERDE]   NS             0            -0             =         < eps
     4 lower_bound[A,SUPER]
                    B              0            -0               
     5 lower_bound[A,NORMALE]
                    B              0            -0               
     6 lower_bound[A,VERDE]
                    B              0            -0               
     7 lower_bound[B,SUPER]
                    B              0            -0               
     8 lower_bound[B,NORMALE]
                    B              0            -0               
     9 lower_bound[B,VERDE]
                    B              0            -0               
    10 lower_bound[C,SUPER]
                    B              0            -0               
    11 lower_bound[C,NORMALE]
                    B              0            -0               
    12 lower_bound[C,VERDE]
                    B              0            -0               
    13 lower_bound[D,SUPER]
                    B              0            -0               
    14 lower_bound[D,NORMALE]
                    B              0            -0               
    15 lower_bound[D,VERDE]
                    B              0            -0               
    16 upper_bound[A,SUPER]
                    NU             0                          -0           2.5 
    17 upper_bound[A,NORMALE]
                    NU             0                          -0           1.5 
    18 upper_bound[A,VERDE]
                    NU             0                          -0           0.5 
    19 upper_bound[B,SUPER]
                    B              0                          -0 
    20 upper_bound[B,NORMALE]
                    B              0                          -0 
    21 upper_bound[B,VERDE]
                    B              0                          -0 
    22 upper_bound[C,SUPER]
                    NU             0                          -0           1.5 
    23 upper_bound[C,NORMALE]
                    NU             0                          -0           0.5 
    24 upper_bound[C,VERDE]
                    B              0                          -0 
    25 upper_bound[D,SUPER]
                    NU             0                          -0           0.5 
    26 upper_bound[D,NORMALE]
                    B              0                          -0 
    27 upper_bound[D,VERDE]
                    B              0                          -0 
    28 risorse_disponibili[A]
                    NS             0            -0             =         < eps
    29 risorse_disponibili[B]
                    NS             0            -0             =         < eps
    30 risorse_disponibili[C]
                    NS             0            -0             =         < eps
    31 risorse_disponibili[D]
                    NS             0            -0             =         < eps
    32 w            B              0                             

   No. Column name  St   Activity     Lower bound   Upper bound    Marginal
------ ------------ -- ------------- ------------- ------------- -------------
     1 x[A,SUPER]   B              0             0               
     2 x[B,SUPER]   NL             0             0                        -0.5 
     3 x[C,SUPER]   B              0             0               
     4 x[D,SUPER]   B              0             0               
     5 x[A,NORMALE] B              0             0               
     6 x[B,NORMALE] NL             0             0                        -1.5 
     7 x[C,NORMALE] B              0             0               
     8 x[D,NORMALE] NL             0             0                        -0.5 
     9 x[A,VERDE]   B              0             0               
    10 x[B,VERDE]   NL             0             0                        -2.5 
    11 x[C,VERDE]   NL             0             0                        -0.5 
    12 x[D,VERDE]   NL             0             0                        -1.5 
    13 z[A]         B              0             0          3000 
    14 z[B]         B              0             0          2000 
    15 z[C]         B              0             0          4000 
    16 z[D]         B              0             0          1000 
    17 totale[SUPER]
                    B              0             0               
    18 totale[NORMALE]
                    B              0             0               
    19 totale[VERDE]
                    B              0             0               

Karush-Kuhn-Tucker optimality conditions:

KKT.PE: max.abs.err = 0.00e+000 on row 0
        max.rel.err = 0.00e+000 on row 0
        High quality

KKT.PB: max.abs.err = 0.00e+000 on row 0
        max.rel.err = 0.00e+000 on row 0
        High quality

KKT.DE: max.abs.err = 0.00e+000 on column 0
        max.rel.err = 0.00e+000 on column 0
        High quality

KKT.DB: max.abs.err = 0.00e+000 on row 0
        max.rel.err = 0.00e+000 on row 0
        High quality

End of output
